c t mc
c file mc2022_track1_102.cnf
p cnf 586 2152
20 0
21 0
22 0
23 0
24 0
25 0
26 0
27 0
28 0
-29 -30 0
-29 -31 0
-29 -32 0
-29 -33 0
-29 -34 0
-29 -35 0
-29 -36 0
-29 -37 0
-38 -39 0
-38 -40 0
-38 -41 0
-38 -42 0
-38 -43 0
-38 -44 0
-38 -45 0
-38 -46 0
-47 -48 0
-47 -49 0
-47 -50 0
-47 -51 0
-47 -52 0
-47 -53 0
-47 -54 0
-47 -55 0
-56 -57 0
-56 -58 0
-56 -59 0
-56 -60 0
-56 -61 0
-56 -62 0
-56 -63 0
-56 -64 0
-65 -66 0
-65 -67 0
-65 -68 0
-65 -69 0
-65 -70 0
-65 -71 0
-65 -72 0
-65 -73 0
-74 -75 0
-74 -76 0
-74 -77 0
-74 -78 0
-74 -79 0
-74 -80 0
-74 -81 0
-74 -82 0
-83 -84 0
-83 -85 0
-83 -86 0
-83 -87 0
-83 -88 0
-83 -89 0
-83 -90 0
-83 -91 0
-92 -93 0
-92 -94 0
-92 -95 0
-92 -96 0
-92 -97 0
-92 -98 0
-92 -99 0
-92 -100 0
-101 -102 0
-101 -103 0
-101 -104 0
-101 -105 0
-101 -106 0
-101 -107 0
-101 -108 0
-101 -109 0
-30 -29 0
-30 -31 0
-30 -32 0
-30 -33 0
-30 -34 0
-30 -35 0
-30 -36 0
-30 -37 0
-39 -38 0
-39 -40 0
-39 -41 0
-39 -42 0
-39 -43 0
-39 -44 0
-39 -45 0
-39 -46 0
-48 -47 0
-48 -49 0
-48 -50 0
-48 -51 0
-48 -52 0
-48 -53 0
-48 -54 0
-48 -55 0
-57 -56 0
-57 -58 0
-57 -59 0
-57 -60 0
-57 -61 0
-57 -62 0
-57 -63 0
-57 -64 0
-66 -65 0
-66 -67 0
-66 -68 0
-66 -69 0
-66 -70 0
-66 -71 0
-66 -72 0
-66 -73 0
-75 -74 0
-75 -76 0
-75 -77 0
-75 -78 0
-75 -79 0
-75 -80 0
-75 -81 0
-75 -82 0
-84 -83 0
-84 -85 0
-84 -86 0
-84 -87 0
-84 -88 0
-84 -89 0
-84 -90 0
-84 -91 0
-93 -92 0
-93 -94 0
-93 -95 0
-93 -96 0
-93 -97 0
-93 -98 0
-93 -99 0
-93 -100 0
-102 -101 0
-102 -103 0
-102 -104 0
-102 -105 0
-102 -106 0
-102 -107 0
-102 -108 0
-102 -109 0
-31 -29 0
-31 -30 0
-31 -32 0
-31 -33 0
-31 -34 0
-31 -35 0
-31 -36 0
-31 -37 0
-40 -38 0
-40 -39 0
-40 -41 0
-40 -42 0
-40 -43 0
-40 -44 0
-40 -45 0
-40 -46 0
-49 -47 0
-49 -48 0
-49 -50 0
-49 -51 0
-49 -52 0
-49 -53 0
-49 -54 0
-49 -55 0
-58 -56 0
-58 -57 0
-58 -59 0
-58 -60 0
-58 -61 0
-58 -62 0
-58 -63 0
-58 -64 0
-67 -65 0
-67 -66 0
-67 -68 0
-67 -69 0
-67 -70 0
-67 -71 0
-67 -72 0
-67 -73 0
-76 -74 0
-76 -75 0
-76 -77 0
-76 -78 0
-76 -79 0
-76 -80 0
-76 -81 0
-76 -82 0
-85 -83 0
-85 -84 0
-85 -86 0
-85 -87 0
-85 -88 0
-85 -89 0
-85 -90 0
-85 -91 0
-94 -92 0
-94 -93 0
-94 -95 0
-94 -96 0
-94 -97 0
-94 -98 0
-94 -99 0
-94 -100 0
-103 -101 0
-103 -102 0
-103 -104 0
-103 -105 0
-103 -106 0
-103 -107 0
-103 -108 0
-103 -109 0
-32 -29 0
-32 -30 0
-32 -31 0
-32 -33 0
-32 -34 0
-32 -35 0
-32 -36 0
-32 -37 0
-41 -38 0
-41 -39 0
-41 -40 0
-41 -42 0
-41 -43 0
-41 -44 0
-41 -45 0
-41 -46 0
-50 -47 0
-50 -48 0
-50 -49 0
-50 -51 0
-50 -52 0
-50 -53 0
-50 -54 0
-50 -55 0
-59 -56 0
-59 -57 0
-59 -58 0
-59 -60 0
-59 -61 0
-59 -62 0
-59 -63 0
-59 -64 0
-68 -65 0
-68 -66 0
-68 -67 0
-68 -69 0
-68 -70 0
-68 -71 0
-68 -72 0
-68 -73 0
-77 -74 0
-77 -75 0
-77 -76 0
-77 -78 0
-77 -79 0
-77 -80 0
-77 -81 0
-77 -82 0
-86 -83 0
-86 -84 0
-86 -85 0
-86 -87 0
-86 -88 0
-86 -89 0
-86 -90 0
-86 -91 0
-95 -92 0
-95 -93 0
-95 -94 0
-95 -96 0
-95 -97 0
-95 -98 0
-95 -99 0
-95 -100 0
-104 -101 0
-104 -102 0
-104 -103 0
-104 -105 0
-104 -106 0
-104 -107 0
-104 -108 0
-104 -109 0
-33 -29 0
-33 -30 0
-33 -31 0
-33 -32 0
-33 -34 0
-33 -35 0
-33 -36 0
-33 -37 0
-42 -38 0
-42 -39 0
-42 -40 0
-42 -41 0
-42 -43 0
-42 -44 0
-42 -45 0
-42 -46 0
-51 -47 0
-51 -48 0
-51 -49 0
-51 -50 0
-51 -52 0
-51 -53 0
-51 -54 0
-51 -55 0
-60 -56 0
-60 -57 0
-60 -58 0
-60 -59 0
-60 -61 0
-60 -62 0
-60 -63 0
-60 -64 0
-69 -65 0
-69 -66 0
-69 -67 0
-69 -68 0
-69 -70 0
-69 -71 0
-69 -72 0
-69 -73 0
-78 -74 0
-78 -75 0
-78 -76 0
-78 -77 0
-78 -79 0
-78 -80 0
-78 -81 0
-78 -82 0
-87 -83 0
-87 -84 0
-87 -85 0
-87 -86 0
-87 -88 0
-87 -89 0
-87 -90 0
-87 -91 0
-96 -92 0
-96 -93 0
-96 -94 0
-96 -95 0
-96 -97 0
-96 -98 0
-96 -99 0
-96 -100 0
-105 -101 0
-105 -102 0
-105 -103 0
-105 -104 0
-105 -106 0
-105 -107 0
-105 -108 0
-105 -109 0
-34 -29 0
-34 -30 0
-34 -31 0
-34 -32 0
-34 -33 0
-34 -35 0
-34 -36 0
-34 -37 0
-43 -38 0
-43 -39 0
-43 -40 0
-43 -41 0
-43 -42 0
-43 -44 0
-43 -45 0
-43 -46 0
-52 -47 0
-52 -48 0
-52 -49 0
-52 -50 0
-52 -51 0
-52 -53 0
-52 -54 0
-52 -55 0
-61 -56 0
-61 -57 0
-61 -58 0
-61 -59 0
-61 -60 0
-61 -62 0
-61 -63 0
-61 -64 0
-70 -65 0
-70 -66 0
-70 -67 0
-70 -68 0
-70 -69 0
-70 -71 0
-70 -72 0
-70 -73 0
-79 -74 0
-79 -75 0
-79 -76 0
-79 -77 0
-79 -78 0
-79 -80 0
-79 -81 0
-79 -82 0
-88 -83 0
-88 -84 0
-88 -85 0
-88 -86 0
-88 -87 0
-88 -89 0
-88 -90 0
-88 -91 0
-97 -92 0
-97 -93 0
-97 -94 0
-97 -95 0
-97 -96 0
-97 -98 0
-97 -99 0
-97 -100 0
-106 -101 0
-106 -102 0
-106 -103 0
-106 -104 0
-106 -105 0
-106 -107 0
-106 -108 0
-106 -109 0
-35 -29 0
-35 -30 0
-35 -31 0
-35 -32 0
-35 -33 0
-35 -34 0
-35 -36 0
-35 -37 0
-44 -38 0
-44 -39 0
-44 -40 0
-44 -41 0
-44 -42 0
-44 -43 0
-44 -45 0
-44 -46 0
-53 -47 0
-53 -48 0
-53 -49 0
-53 -50 0
-53 -51 0
-53 -52 0
-53 -54 0
-53 -55 0
-62 -56 0
-62 -57 0
-62 -58 0
-62 -59 0
-62 -60 0
-62 -61 0
-62 -63 0
-62 -64 0
-71 -65 0
-71 -66 0
-71 -67 0
-71 -68 0
-71 -69 0
-71 -70 0
-71 -72 0
-71 -73 0
-80 -74 0
-80 -75 0
-80 -76 0
-80 -77 0
-80 -78 0
-80 -79 0
-80 -81 0
-80 -82 0
-89 -83 0
-89 -84 0
-89 -85 0
-89 -86 0
-89 -87 0
-89 -88 0
-89 -90 0
-89 -91 0
-98 -92 0
-98 -93 0
-98 -94 0
-98 -95 0
-98 -96 0
-98 -97 0
-98 -99 0
-98 -100 0
-107 -101 0
-107 -102 0
-107 -103 0
-107 -104 0
-107 -105 0
-107 -106 0
-107 -108 0
-107 -109 0
-36 -29 0
-36 -30 0
-36 -31 0
-36 -32 0
-36 -33 0
-36 -34 0
-36 -35 0
-36 -37 0
-45 -38 0
-45 -39 0
-45 -40 0
-45 -41 0
-45 -42 0
-45 -43 0
-45 -44 0
-45 -46 0
-54 -47 0
-54 -48 0
-54 -49 0
-54 -50 0
-54 -51 0
-54 -52 0
-54 -53 0
-54 -55 0
-63 -56 0
-63 -57 0
-63 -58 0
-63 -59 0
-63 -60 0
-63 -61 0
-63 -62 0
-63 -64 0
-72 -65 0
-72 -66 0
-72 -67 0
-72 -68 0
-72 -69 0
-72 -70 0
-72 -71 0
-72 -73 0
-81 -74 0
-81 -75 0
-81 -76 0
-81 -77 0
-81 -78 0
-81 -79 0
-81 -80 0
-81 -82 0
-90 -83 0
-90 -84 0
-90 -85 0
-90 -86 0
-90 -87 0
-90 -88 0
-90 -89 0
-90 -91 0
-99 -92 0
-99 -93 0
-99 -94 0
-99 -95 0
-99 -96 0
-99 -97 0
-99 -98 0
-99 -100 0
-108 -101 0
-108 -102 0
-108 -103 0
-108 -104 0
-108 -105 0
-108 -106 0
-108 -107 0
-108 -109 0
-37 -29 0
-37 -30 0
-37 -31 0
-37 -32 0
-37 -33 0
-37 -34 0
-37 -35 0
-37 -36 0
-46 -38 0
-46 -39 0
-46 -40 0
-46 -41 0
-46 -42 0
-46 -43 0
-46 -44 0
-46 -45 0
-55 -47 0
-55 -48 0
-55 -49 0
-55 -50 0
-55 -51 0
-55 -52 0
-55 -53 0
-55 -54 0
-64 -56 0
-64 -57 0
-64 -58 0
-64 -59 0
-64 -60 0
-64 -61 0
-64 -62 0
-64 -63 0
-73 -65 0
-73 -66 0
-73 -67 0
-73 -68 0
-73 -69 0
-73 -70 0
-73 -71 0
-73 -72 0
-82 -74 0
-82 -75 0
-82 -76 0
-82 -77 0
-82 -78 0
-82 -79 0
-82 -80 0
-82 -81 0
-91 -83 0
-91 -84 0
-91 -85 0
-91 -86 0
-91 -87 0
-91 -88 0
-91 -89 0
-91 -90 0
-100 -92 0
-100 -93 0
-100 -94 0
-100 -95 0
-100 -96 0
-100 -97 0
-100 -98 0
-100 -99 0
-109 -101 0
-109 -102 0
-109 -103 0
-109 -104 0
-109 -105 0
-109 -106 0
-109 -107 0
-109 -108 0
137 -20 0
-137 20 0
29 -137 138 0
-29 137 0
-29 -138 0
138 29 0
-138 -29 0
38 -137 139 0
-38 137 0
-38 -139 0
139 38 0
-139 -38 0
47 -137 140 0
-47 137 0
-47 -140 0
140 47 0
-140 -47 0
56 -137 141 0
-56 137 0
-56 -141 0
141 56 0
-141 -56 0
65 -137 142 0
-65 137 0
-65 -142 0
142 65 0
-142 -65 0
74 -137 143 0
-74 137 0
-74 -143 0
143 74 0
-143 -74 0
83 -137 144 0
-83 137 0
-83 -144 0
144 83 0
-144 -83 0
92 -137 145 0
-92 137 0
-92 -145 0
145 92 0
-145 -92 0
101 -137 146 0
-101 137 0
-101 -146 0
146 101 0
-146 -101 0
308 -29 0
-308 29 0
309 -38 0
-309 38 0
310 -47 0
-310 47 0
311 -56 0
-311 56 0
312 -65 0
-312 65 0
313 -74 0
-313 74 0
314 -83 0
-314 83 0
315 -92 0
-315 92 0
316 -101 0
-316 101 0
147 -29 0
-147 29 0
317 -147 -38 0
-317 147 0
-317 38 0
318 -147 0
-318 147 0
319 -38 0
-319 38 0
320 -148 -47 0
-320 148 0
-320 47 0
321 -148 0
-321 148 0
322 -47 0
-322 47 0
323 -149 -56 0
-323 149 0
-323 56 0
324 -149 0
-324 149 0
325 -56 0
-325 56 0
326 -150 -65 0
-326 150 0
-326 65 0
327 -150 0
-327 150 0
328 -65 0
-328 65 0
329 -151 -74 0
-329 151 0
-329 74 0
330 -151 0
-330 151 0
331 -74 0
-331 74 0
332 -152 -83 0
-332 152 0
-332 83 0
333 -152 0
-333 152 0
334 -83 0
-334 83 0
335 -153 -92 0
-335 153 0
-335 92 0
336 -153 0
-336 153 0
337 -92 0
-337 92 0
338 -154 -101 0
-338 154 0
-338 101 0
112 -110 111 0
-112 110 0
-112 -111 0
-20 112 0
156 -21 0
-156 21 0
30 -156 157 0
-30 156 0
-30 -157 0
157 30 0
-157 -30 0
39 -156 158 0
-39 156 0
-39 -158 0
158 39 0
-158 -39 0
48 -156 159 0
-48 156 0
-48 -159 0
159 48 0
-159 -48 0
57 -156 160 0
-57 156 0
-57 -160 0
160 57 0
-160 -57 0
66 -156 161 0
-66 156 0
-66 -161 0
161 66 0
-161 -66 0
75 -156 162 0
-75 156 0
-75 -162 0
162 75 0
-162 -75 0
84 -156 163 0
-84 156 0
-84 -163 0
163 84 0
-163 -84 0
93 -156 164 0
-93 156 0
-93 -164 0
164 93 0
-164 -93 0
102 -156 165 0
-102 156 0
-102 -165 0
165 102 0
-165 -102 0
339 -30 0
-339 30 0
340 -39 0
-340 39 0
341 -48 0
-341 48 0
342 -57 0
-342 57 0
343 -66 0
-343 66 0
344 -75 0
-344 75 0
345 -84 0
-345 84 0
346 -93 0
-346 93 0
347 -102 0
-347 102 0
166 -30 0
-166 30 0
348 -166 -39 0
-348 166 0
-348 39 0
349 -166 0
-349 166 0
350 -39 0
-350 39 0
351 -167 -48 0
-351 167 0
-351 48 0
352 -167 0
-352 167 0
353 -48 0
-353 48 0
354 -168 -57 0
-354 168 0
-354 57 0
355 -168 0
-355 168 0
356 -57 0
-356 57 0
357 -169 -66 0
-357 169 0
-357 66 0
358 -169 0
-358 169 0
359 -66 0
-359 66 0
360 -170 -75 0
-360 170 0
-360 75 0
361 -170 0
-361 170 0
362 -75 0
-362 75 0
363 -171 -84 0
-363 171 0
-363 84 0
364 -171 0
-364 171 0
365 -84 0
-365 84 0
366 -172 -93 0
-366 172 0
-366 93 0
367 -172 0
-367 172 0
368 -93 0
-368 93 0
369 -173 -102 0
-369 173 0
-369 102 0
115 -113 114 0
-115 113 0
-115 -114 0
-21 115 0
175 -22 0
-175 22 0
31 -175 176 0
-31 175 0
-31 -176 0
176 31 0
-176 -31 0
40 -175 177 0
-40 175 0
-40 -177 0
177 40 0
-177 -40 0
49 -175 178 0
-49 175 0
-49 -178 0
178 49 0
-178 -49 0
58 -175 179 0
-58 175 0
-58 -179 0
179 58 0
-179 -58 0
67 -175 180 0
-67 175 0
-67 -180 0
180 67 0
-180 -67 0
76 -175 181 0
-76 175 0
-76 -181 0
181 76 0
-181 -76 0
85 -175 182 0
-85 175 0
-85 -182 0
182 85 0
-182 -85 0
94 -175 183 0
-94 175 0
-94 -183 0
183 94 0
-183 -94 0
103 -175 184 0
-103 175 0
-103 -184 0
184 103 0
-184 -103 0
370 -31 0
-370 31 0
371 -40 0
-371 40 0
372 -49 0
-372 49 0
373 -58 0
-373 58 0
374 -67 0
-374 67 0
375 -76 0
-375 76 0
376 -85 0
-376 85 0
377 -94 0
-377 94 0
378 -103 0
-378 103 0
185 -31 0
-185 31 0
379 -185 -40 0
-379 185 0
-379 40 0
380 -185 0
-380 185 0
381 -40 0
-381 40 0
382 -186 -49 0
-382 186 0
-382 49 0
383 -186 0
-383 186 0
384 -49 0
-384 49 0
385 -187 -58 0
-385 187 0
-385 58 0
386 -187 0
-386 187 0
387 -58 0
-387 58 0
388 -188 -67 0
-388 188 0
-388 67 0
389 -188 0
-389 188 0
390 -67 0
-390 67 0
391 -189 -76 0
-391 189 0
-391 76 0
392 -189 0
-392 189 0
393 -76 0
-393 76 0
394 -190 -85 0
-394 190 0
-394 85 0
395 -190 0
-395 190 0
396 -85 0
-396 85 0
397 -191 -94 0
-397 191 0
-397 94 0
398 -191 0
-398 191 0
399 -94 0
-399 94 0
400 -192 -103 0
-400 192 0
-400 103 0
118 -116 117 0
-118 116 0
-118 -117 0
-22 118 0
194 -23 0
-194 23 0
32 -194 195 0
-32 194 0
-32 -195 0
195 32 0
-195 -32 0
41 -194 196 0
-41 194 0
-41 -196 0
196 41 0
-196 -41 0
50 -194 197 0
-50 194 0
-50 -197 0
197 50 0
-197 -50 0
59 -194 198 0
-59 194 0
-59 -198 0
198 59 0
-198 -59 0
68 -194 199 0
-68 194 0
-68 -199 0
199 68 0
-199 -68 0
77 -194 200 0
-77 194 0
-77 -200 0
200 77 0
-200 -77 0
86 -194 201 0
-86 194 0
-86 -201 0
201 86 0
-201 -86 0
95 -194 202 0
-95 194 0
-95 -202 0
202 95 0
-202 -95 0
104 -194 203 0
-104 194 0
-104 -203 0
203 104 0
-203 -104 0
401 -32 0
-401 32 0
402 -41 0
-402 41 0
403 -50 0
-403 50 0
404 -59 0
-404 59 0
405 -68 0
-405 68 0
406 -77 0
-406 77 0
407 -86 0
-407 86 0
408 -95 0
-408 95 0
409 -104 0
-409 104 0
204 -32 0
-204 32 0
410 -204 -41 0
-410 204 0
-410 41 0
411 -204 0
-411 204 0
412 -41 0
-412 41 0
413 -205 -50 0
-413 205 0
-413 50 0
414 -205 0
-414 205 0
415 -50 0
-415 50 0
416 -206 -59 0
-416 206 0
-416 59 0
417 -206 0
-417 206 0
418 -59 0
-418 59 0
419 -207 -68 0
-419 207 0
-419 68 0
420 -207 0
-420 207 0
421 -68 0
-421 68 0
422 -208 -77 0
-422 208 0
-422 77 0
423 -208 0
-423 208 0
424 -77 0
-424 77 0
425 -209 -86 0
-425 209 0
-425 86 0
426 -209 0
-426 209 0
427 -86 0
-427 86 0
428 -210 -95 0
-428 210 0
-428 95 0
429 -210 0
-429 210 0
430 -95 0
-430 95 0
431 -211 -104 0
-431 211 0
-431 104 0
121 -119 120 0
-121 119 0
-121 -120 0
-23 121 0
213 -24 0
-213 24 0
33 -213 214 0
-33 213 0
-33 -214 0
214 33 0
-214 -33 0
42 -213 215 0
-42 213 0
-42 -215 0
215 42 0
-215 -42 0
51 -213 216 0
-51 213 0
-51 -216 0
216 51 0
-216 -51 0
60 -213 217 0
-60 213 0
-60 -217 0
217 60 0
-217 -60 0
69 -213 218 0
-69 213 0
-69 -218 0
218 69 0
-218 -69 0
78 -213 219 0
-78 213 0
-78 -219 0
219 78 0
-219 -78 0
87 -213 220 0
-87 213 0
-87 -220 0
220 87 0
-220 -87 0
96 -213 221 0
-96 213 0
-96 -221 0
221 96 0
-221 -96 0
105 -213 222 0
-105 213 0
-105 -222 0
222 105 0
-222 -105 0
432 -33 0
-432 33 0
433 -42 0
-433 42 0
434 -51 0
-434 51 0
435 -60 0
-435 60 0
436 -69 0
-436 69 0
437 -78 0
-437 78 0
438 -87 0
-438 87 0
439 -96 0
-439 96 0
440 -105 0
-440 105 0
223 -33 0
-223 33 0
441 -223 -42 0
-441 223 0
-441 42 0
442 -223 0
-442 223 0
443 -42 0
-443 42 0
444 -224 -51 0
-444 224 0
-444 51 0
445 -224 0
-445 224 0
446 -51 0
-446 51 0
447 -225 -60 0
-447 225 0
-447 60 0
448 -225 0
-448 225 0
449 -60 0
-449 60 0
450 -226 -69 0
-450 226 0
-450 69 0
451 -226 0
-451 226 0
452 -69 0
-452 69 0
453 -227 -78 0
-453 227 0
-453 78 0
454 -227 0
-454 227 0
455 -78 0
-455 78 0
456 -228 -87 0
-456 228 0
-456 87 0
457 -228 0
-457 228 0
458 -87 0
-458 87 0
459 -229 -96 0
-459 229 0
-459 96 0
460 -229 0
-460 229 0
461 -96 0
-461 96 0
462 -230 -105 0
-462 230 0
-462 105 0
124 -122 123 0
-124 122 0
-124 -123 0
-24 124 0
232 -25 0
-232 25 0
34 -232 233 0
-34 232 0
-34 -233 0
233 34 0
-233 -34 0
43 -232 234 0
-43 232 0
-43 -234 0
234 43 0
-234 -43 0
52 -232 235 0
-52 232 0
-52 -235 0
235 52 0
-235 -52 0
61 -232 236 0
-61 232 0
-61 -236 0
236 61 0
-236 -61 0
70 -232 237 0
-70 232 0
-70 -237 0
237 70 0
-237 -70 0
79 -232 238 0
-79 232 0
-79 -238 0
238 79 0
-238 -79 0
88 -232 239 0
-88 232 0
-88 -239 0
239 88 0
-239 -88 0
97 -232 240 0
-97 232 0
-97 -240 0
240 97 0
-240 -97 0
106 -232 241 0
-106 232 0
-106 -241 0
241 106 0
-241 -106 0
463 -34 0
-463 34 0
464 -43 0
-464 43 0
465 -52 0
-465 52 0
466 -61 0
-466 61 0
467 -70 0
-467 70 0
468 -79 0
-468 79 0
469 -88 0
-469 88 0
470 -97 0
-470 97 0
471 -106 0
-471 106 0
242 -34 0
-242 34 0
472 -242 -43 0
-472 242 0
-472 43 0
473 -242 0
-473 242 0
474 -43 0
-474 43 0
475 -243 -52 0
-475 243 0
-475 52 0
476 -243 0
-476 243 0
477 -52 0
-477 52 0
478 -244 -61 0
-478 244 0
-478 61 0
479 -244 0
-479 244 0
480 -61 0
-480 61 0
481 -245 -70 0
-481 245 0
-481 70 0
482 -245 0
-482 245 0
483 -70 0
-483 70 0
484 -246 -79 0
-484 246 0
-484 79 0
485 -246 0
-485 246 0
486 -79 0
-486 79 0
487 -247 -88 0
-487 247 0
-487 88 0
488 -247 0
-488 247 0
489 -88 0
-489 88 0
490 -248 -97 0
-490 248 0
-490 97 0
491 -248 0
-491 248 0
492 -97 0
-492 97 0
493 -249 -106 0
-493 249 0
-493 106 0
127 -125 126 0
-127 125 0
-127 -126 0
-25 127 0
251 -26 0
-251 26 0
35 -251 252 0
-35 251 0
-35 -252 0
252 35 0
-252 -35 0
44 -251 253 0
-44 251 0
-44 -253 0
253 44 0
-253 -44 0
53 -251 254 0
-53 251 0
-53 -254 0
254 53 0
-254 -53 0
62 -251 255 0
-62 251 0
-62 -255 0
255 62 0
-255 -62 0
71 -251 256 0
-71 251 0
-71 -256 0
256 71 0
-256 -71 0
80 -251 257 0
-80 251 0
-80 -257 0
257 80 0
-257 -80 0
89 -251 258 0
-89 251 0
-89 -258 0
258 89 0
-258 -89 0
98 -251 259 0
-98 251 0
-98 -259 0
259 98 0
-259 -98 0
107 -251 260 0
-107 251 0
-107 -260 0
260 107 0
-260 -107 0
494 -35 0
-494 35 0
495 -44 0
-495 44 0
496 -53 0
-496 53 0
497 -62 0
-497 62 0
498 -71 0
-498 71 0
499 -80 0
-499 80 0
500 -89 0
-500 89 0
501 -98 0
-501 98 0
502 -107 0
-502 107 0
261 -35 0
-261 35 0
503 -261 -44 0
-503 261 0
-503 44 0
504 -261 0
-504 261 0
505 -44 0
-505 44 0
506 -262 -53 0
-506 262 0
-506 53 0
507 -262 0
-507 262 0
508 -53 0
-508 53 0
509 -263 -62 0
-509 263 0
-509 62 0
510 -263 0
-510 263 0
511 -62 0
-511 62 0
512 -264 -71 0
-512 264 0
-512 71 0
513 -264 0
-513 264 0
514 -71 0
-514 71 0
515 -265 -80 0
-515 265 0
-515 80 0
516 -265 0
-516 265 0
517 -80 0
-517 80 0
518 -266 -89 0
-518 266 0
-518 89 0
519 -266 0
-519 266 0
520 -89 0
-520 89 0
521 -267 -98 0
-521 267 0
-521 98 0
522 -267 0
-522 267 0
523 -98 0
-523 98 0
524 -268 -107 0
-524 268 0
-524 107 0
130 -128 129 0
-130 128 0
-130 -129 0
-26 130 0
270 -27 0
-270 27 0
36 -270 271 0
-36 270 0
-36 -271 0
271 36 0
-271 -36 0
45 -270 272 0
-45 270 0
-45 -272 0
272 45 0
-272 -45 0
54 -270 273 0
-54 270 0
-54 -273 0
273 54 0
-273 -54 0
63 -270 274 0
-63 270 0
-63 -274 0
274 63 0
-274 -63 0
72 -270 275 0
-72 270 0
-72 -275 0
275 72 0
-275 -72 0
81 -270 276 0
-81 270 0
-81 -276 0
276 81 0
-276 -81 0
90 -270 277 0
-90 270 0
-90 -277 0
277 90 0
-277 -90 0
99 -270 278 0
-99 270 0
-99 -278 0
278 99 0
-278 -99 0
108 -270 279 0
-108 270 0
-108 -279 0
279 108 0
-279 -108 0
525 -36 0
-525 36 0
526 -45 0
-526 45 0
527 -54 0
-527 54 0
528 -63 0
-528 63 0
529 -72 0
-529 72 0
530 -81 0
-530 81 0
531 -90 0
-531 90 0
532 -99 0
-532 99 0
533 -108 0
-533 108 0
280 -36 0
-280 36 0
534 -280 -45 0
-534 280 0
-534 45 0
535 -280 0
-535 280 0
536 -45 0
-536 45 0
537 -281 -54 0
-537 281 0
-537 54 0
538 -281 0
-538 281 0
539 -54 0
-539 54 0
540 -282 -63 0
-540 282 0
-540 63 0
541 -282 0
-541 282 0
542 -63 0
-542 63 0
543 -283 -72 0
-543 283 0
-543 72 0
544 -283 0
-544 283 0
545 -72 0
-545 72 0
546 -284 -81 0
-546 284 0
-546 81 0
547 -284 0
-547 284 0
548 -81 0
-548 81 0
549 -285 -90 0
-549 285 0
-549 90 0
550 -285 0
-550 285 0
551 -90 0
-551 90 0
552 -286 -99 0
-552 286 0
-552 99 0
553 -286 0
-553 286 0
554 -99 0
-554 99 0
555 -287 -108 0
-555 287 0
-555 108 0
133 -131 132 0
-133 131 0
-133 -132 0
-27 133 0
289 -28 0
-289 28 0
37 -289 290 0
-37 289 0
-37 -290 0
290 37 0
-290 -37 0
46 -289 291 0
-46 289 0
-46 -291 0
291 46 0
-291 -46 0
55 -289 292 0
-55 289 0
-55 -292 0
292 55 0
-292 -55 0
64 -289 293 0
-64 289 0
-64 -293 0
293 64 0
-293 -64 0
73 -289 294 0
-73 289 0
-73 -294 0
294 73 0
-294 -73 0
82 -289 295 0
-82 289 0
-82 -295 0
295 82 0
-295 -82 0
91 -289 296 0
-91 289 0
-91 -296 0
296 91 0
-296 -91 0
100 -289 297 0
-100 289 0
-100 -297 0
297 100 0
-297 -100 0
109 -289 298 0
-109 289 0
-109 -298 0
298 109 0
-298 -109 0
556 -37 0
-556 37 0
557 -46 0
-557 46 0
558 -55 0
-558 55 0
559 -64 0
-559 64 0
560 -73 0
-560 73 0
561 -82 0
-561 82 0
562 -91 0
-562 91 0
563 -100 0
-563 100 0
564 -109 0
-564 109 0
299 -37 0
-299 37 0
565 -299 -46 0
-565 299 0
-565 46 0
566 -299 0
-566 299 0
567 -46 0
-567 46 0
568 -300 -55 0
-568 300 0
-568 55 0
569 -300 0
-569 300 0
570 -55 0
-570 55 0
571 -301 -64 0
-571 301 0
-571 64 0
572 -301 0
-572 301 0
573 -64 0
-573 64 0
574 -302 -73 0
-574 302 0
-574 73 0
575 -302 0
-575 302 0
576 -73 0
-576 73 0
577 -303 -82 0
-577 303 0
-577 82 0
578 -303 0
-578 303 0
579 -82 0
-579 82 0
580 -304 -91 0
-580 304 0
-580 91 0
581 -304 0
-581 304 0
582 -91 0
-582 91 0
583 -305 -100 0
-583 305 0
-583 100 0
584 -305 0
-584 305 0
585 -100 0
-585 100 0
586 -306 -109 0
-586 306 0
-586 109 0
136 -134 135 0
-136 134 0
-136 -135 0
-28 136 0
-1 0
-2 0
-3 0
-4 0
-5 0
-6 0
-7 0
-8 0
-9 0
-10 0
-11 0
-12 0
-13 0
-14 0
-15 0
-16 0
-17 0
-18 0
-19 0
-110 308 309 310 311 312 313 314 315 316 0
110 -308 0
110 -309 0
110 -310 0
110 -311 0
110 -312 0
110 -313 0
110 -314 0
110 -315 0
110 -316 0
-111 317 320 323 326 329 332 335 338 0
111 -317 0
111 -320 0
111 -323 0
111 -326 0
111 -329 0
111 -332 0
111 -335 0
111 -338 0
-113 339 340 341 342 343 344 345 346 347 0
113 -339 0
113 -340 0
113 -341 0
113 -342 0
113 -343 0
113 -344 0
113 -345 0
113 -346 0
113 -347 0
-114 348 351 354 357 360 363 366 369 0
114 -348 0
114 -351 0
114 -354 0
114 -357 0
114 -360 0
114 -363 0
114 -366 0
114 -369 0
-116 370 371 372 373 374 375 376 377 378 0
116 -370 0
116 -371 0
116 -372 0
116 -373 0
116 -374 0
116 -375 0
116 -376 0
116 -377 0
116 -378 0
-117 379 382 385 388 391 394 397 400 0
117 -379 0
117 -382 0
117 -385 0
117 -388 0
117 -391 0
117 -394 0
117 -397 0
117 -400 0
-119 401 402 403 404 405 406 407 408 409 0
119 -401 0
119 -402 0
119 -403 0
119 -404 0
119 -405 0
119 -406 0
119 -407 0
119 -408 0
119 -409 0
-120 410 413 416 419 422 425 428 431 0
120 -410 0
120 -413 0
120 -416 0
120 -419 0
120 -422 0
120 -425 0
120 -428 0
120 -431 0
-122 432 433 434 435 436 437 438 439 440 0
122 -432 0
122 -433 0
122 -434 0
122 -435 0
122 -436 0
122 -437 0
122 -438 0
122 -439 0
122 -440 0
-123 441 444 447 450 453 456 459 462 0
123 -441 0
123 -444 0
123 -447 0
123 -450 0
123 -453 0
123 -456 0
123 -459 0
123 -462 0
-125 463 464 465 466 467 468 469 470 471 0
125 -463 0
125 -464 0
125 -465 0
125 -466 0
125 -467 0
125 -468 0
125 -469 0
125 -470 0
125 -471 0
-126 472 475 478 481 484 487 490 493 0
126 -472 0
126 -475 0
126 -478 0
126 -481 0
126 -484 0
126 -487 0
126 -490 0
126 -493 0
-128 494 495 496 497 498 499 500 501 502 0
128 -494 0
128 -495 0
128 -496 0
128 -497 0
128 -498 0
128 -499 0
128 -500 0
128 -501 0
128 -502 0
-129 503 506 509 512 515 518 521 524 0
129 -503 0
129 -506 0
129 -509 0
129 -512 0
129 -515 0
129 -518 0
129 -521 0
129 -524 0
-131 525 526 527 528 529 530 531 532 533 0
131 -525 0
131 -526 0
131 -527 0
131 -528 0
131 -529 0
131 -530 0
131 -531 0
131 -532 0
131 -533 0
-132 534 537 540 543 546 549 552 555 0
132 -534 0
132 -537 0
132 -540 0
132 -543 0
132 -546 0
132 -549 0
132 -552 0
132 -555 0
-134 556 557 558 559 560 561 562 563 564 0
134 -556 0
134 -557 0
134 -558 0
134 -559 0
134 -560 0
134 -561 0
134 -562 0
134 -563 0
134 -564 0
-135 565 568 571 574 577 580 583 586 0
135 -565 0
135 -568 0
135 -571 0
135 -574 0
135 -577 0
135 -580 0
135 -583 0
135 -586 0
-148 318 319 0
148 -318 0
148 -319 0
-149 321 322 0
149 -321 0
149 -322 0
-150 324 325 0
150 -324 0
150 -325 0
-151 327 328 0
151 -327 0
151 -328 0
-152 330 331 0
152 -330 0
152 -331 0
-153 333 334 0
153 -333 0
153 -334 0
-154 336 337 0
154 -336 0
154 -337 0
-155 0
-167 349 350 0
167 -349 0
167 -350 0
-168 352 353 0
168 -352 0
168 -353 0
-169 355 356 0
169 -355 0
169 -356 0
-170 358 359 0
170 -358 0
170 -359 0
-171 361 362 0
171 -361 0
171 -362 0
-172 364 365 0
172 -364 0
172 -365 0
-173 367 368 0
173 -367 0
173 -368 0
-174 0
-186 380 381 0
186 -380 0
186 -381 0
-187 383 384 0
187 -383 0
187 -384 0
-188 386 387 0
188 -386 0
188 -387 0
-189 389 390 0
189 -389 0
189 -390 0
-190 392 393 0
190 -392 0
190 -393 0
-191 395 396 0
191 -395 0
191 -396 0
-192 398 399 0
192 -398 0
192 -399 0
-193 0
-205 411 412 0
205 -411 0
205 -412 0
-206 414 415 0
206 -414 0
206 -415 0
-207 417 418 0
207 -417 0
207 -418 0
-208 420 421 0
208 -420 0
208 -421 0
-209 423 424 0
209 -423 0
209 -424 0
-210 426 427 0
210 -426 0
210 -427 0
-211 429 430 0
211 -429 0
211 -430 0
-212 0
-224 442 443 0
224 -442 0
224 -443 0
-225 445 446 0
225 -445 0
225 -446 0
-226 448 449 0
226 -448 0
226 -449 0
-227 451 452 0
227 -451 0
227 -452 0
-228 454 455 0
228 -454 0
228 -455 0
-229 457 458 0
229 -457 0
229 -458 0
-230 460 461 0
230 -460 0
230 -461 0
-231 0
-243 473 474 0
243 -473 0
243 -474 0
-244 476 477 0
244 -476 0
244 -477 0
-245 479 480 0
245 -479 0
245 -480 0
-246 482 483 0
246 -482 0
246 -483 0
-247 485 486 0
247 -485 0
247 -486 0
-248 488 489 0
248 -488 0
248 -489 0
-249 491 492 0
249 -491 0
249 -492 0
-250 0
-262 504 505 0
262 -504 0
262 -505 0
-263 507 508 0
263 -507 0
263 -508 0
-264 510 511 0
264 -510 0
264 -511 0
-265 513 514 0
265 -513 0
265 -514 0
-266 516 517 0
266 -516 0
266 -517 0
-267 519 520 0
267 -519 0
267 -520 0
-268 522 523 0
268 -522 0
268 -523 0
-269 0
-281 535 536 0
281 -535 0
281 -536 0
-282 538 539 0
282 -538 0
282 -539 0
-283 541 542 0
283 -541 0
283 -542 0
-284 544 545 0
284 -544 0
284 -545 0
-285 547 548 0
285 -547 0
285 -548 0
-286 550 551 0
286 -550 0
286 -551 0
-287 553 554 0
287 -553 0
287 -554 0
-288 0
-300 566 567 0
300 -566 0
300 -567 0
-301 569 570 0
301 -569 0
301 -570 0
-302 572 573 0
302 -572 0
302 -573 0
-303 575 576 0
303 -575 0
303 -576 0
-304 578 579 0
304 -578 0
304 -579 0
-305 581 582 0
305 -581 0
305 -582 0
-306 584 585 0
306 -584 0
306 -585 0
-307 0
